
Log started (V11.0.0) Thu May 15 09:33:03 2008

Tried aggregator 1 time.
Reduced MIP has 220 rows, 4001 columns, and 8020 nonzeros.
Presolve time =    0.03 sec.
Clique table members: 200.
MIP emphasis: balance optimality and feasibility.
MIP search method: dynamic search.
Parallel mode: none, using 1 thread.
Root relaxation solution time =    0.11 sec.

        Nodes                                         Cuts/
   Node  Left     Objective  IInf  Best Integer     Best Node    ItCnt     Gap

*     0+    0                         7264.0000      171.6753      398   97.64%
*     0+    0                          185.0000      171.6753      398    7.20%
      0     0      172.4704    39      185.0000      Fract: 5      427    6.77%
      0     0      173.6658    42      185.0000    MIRcuts: 7      517    6.13%
*     0+    0                          184.0000      173.6658      517    5.62%
      0     0      174.2835    47      184.0000       Cuts: 8      585    5.28%
      0     0      174.3945    59      184.0000       Cuts: 7      611    5.22%
      0     0      174.7134    63      184.0000       Cuts: 5      653    5.05%
*     0+    0                          183.0000      174.7134      653    4.53%
      0     0      174.7199    70      183.0000       Cuts: 3      671    4.52%
*     0+    0                          182.0000      174.7199      671    4.00%
      0     0      174.7374    67      182.0000       Cuts: 6      687    3.99%
      0     0      175.0550    63      182.0000       Cuts: 6      710    3.82%
      0     0      175.0839    58      182.0000       Cuts: 4      728    3.80%
*     0+    0                          181.0000      175.0839      728    3.27%
      0     0      175.1231    57      181.0000     Covers: 1      741    3.25%
      0     0      175.2524    66      181.0000       Cuts: 4      780    3.18%
      0     0      175.2588    64      181.0000       Cuts: 4      798    3.17%
*     0+    0                          180.0000      175.2588      798    2.63%
      0     2      176.0000    50      180.0000      175.2588      798    2.63%
    100    99      177.0000    23      180.0000      176.0000     2213    2.22%
    200   165      178.0000    17      180.0000      176.0000     3745    2.22%
    300   219      178.0000    16      180.0000      176.0000     5236    2.22%
    400   272      178.0000    20      180.0000      176.0000     6738    2.22%
    500   355      176.0000    26      180.0000      176.0000     8164    2.22%
    600   367      178.0000     4      180.0000      177.0611    10781    1.63%
    700   384      179.0000    29      180.0000      177.0611    12767    1.63%
    800   389      179.0000    16      180.0000      178.0000    14816    1.11%
    900   321    infeasible            180.0000      178.0000    17965    1.11%
   1000   337      178.0000    23      180.0000      178.0000    19944    1.11%
Elapsed time =  18.28 sec. (tree size =  1.51 MB, solutions = 7)
   1100   404      178.1659    32      180.0000      178.0000    21797    1.11%
   1200   484      178.0000    24      180.0000      178.0000    23881    1.11%
*  1201+  323                          179.0000      178.0000    23884    0.56%
   1300   387    infeasible            179.0000      178.0000    25760    0.56%
   1400   445      178.0000    18      179.0000      178.0000    27631    0.56%
   1500   537      178.0000    27      179.0000      178.0000    29569    0.56%
   1600   621      178.0000    16      179.0000      178.0000    31431    0.56%
   1700   705    infeasible            179.0000      178.0000    33790    0.56%
   1800   767      178.0000    22      179.0000      178.0000    35811    0.56%
   1900   853      178.0000    32      179.0000      178.0000    37726    0.56%
   2000   949      178.0000    16      179.0000      178.0000    39230    0.56%
Elapsed time =  28.33 sec. (tree size =  4.63 MB, solutions = 8)
   2100  1041    infeasible            179.0000      178.0000    41058    0.56%
   2200  1129      178.0000    27      179.0000      178.0000    42812    0.56%
   2300  1183      178.0000    18      179.0000      178.0000    45598    0.56%
   2400  1273      178.0000    18      179.0000      178.0000    47637    0.56%
   2500  1365      178.0000    17      179.0000      178.0000    50324    0.56%
*  2511+    1                          178.0000      178.0000    50640    0.00%

Cover cuts applied:  113
Mixed integer rounding cuts applied:  9
Gomory fractional cuts applied:  1

Solution pool: 9 solutions saved.

MIP - Integer optimal solution:  Objective = 1.7800000000e+002
Solution time =   32.91 sec.  Iterations = 50640  Nodes = 2511


Incumbent solution
Variable Name           Solution Value
Cmax                        178.000000
X_1_11                        1.000000
X_2_15                        1.000000
X_3_10                        1.000000
X_4_9                         1.000000
X_5_19                        1.000000
X_6_13                        1.000000
X_7_13                        1.000000
X_8_17                        1.000000
X_9_6                         1.000000
X_10_6                        1.000000
X_11_18                       1.000000
X_12_17                       1.000000
X_13_15                       1.000000
X_14_17                       1.000000
X_15_20                       1.000000
X_16_10                       1.000000
X_17_10                       1.000000
X_18_18                       1.000000
X_19_2                        1.000000
X_20_13                       1.000000
X_21_18                       1.000000
X_22_5                        1.000000
X_23_13                       1.000000
X_24_16                       1.000000
X_25_10                       1.000000
X_26_15                       1.000000
X_27_10                       1.000000
X_28_18                       1.000000
X_29_3                        1.000000
X_30_15                       1.000000
X_31_11                       1.000000
X_32_5                        1.000000
X_33_17                       1.000000
X_34_18                       1.000000
X_35_15                       1.000000
X_36_13                       1.000000
X_37_10                       1.000000
X_38_10                       1.000000
X_39_10                       1.000000
X_40_6                        1.000000
X_41_10                       1.000000
X_42_18                       1.000000
X_43_17                       1.000000
X_44_1                        1.000000
X_45_12                       1.000000
X_46_15                       1.000000
X_47_10                       1.000000
X_48_13                       1.000000
X_49_18                       1.000000
X_50_1                        1.000000
X_51_17                       1.000000
X_52_18                       1.000000
X_53_17                       1.000000
X_54_13                       1.000000
X_55_9                        1.000000
X_56_13                       1.000000
X_57_4                        1.000000
X_58_17                       1.000000
X_59_18                       1.000000
X_60_11                       1.000000
X_61_10                       1.000000
X_62_18                       1.000000
X_63_17                       1.000000
X_64_4                        1.000000
X_65_11                       1.000000
X_66_17                       1.000000
X_67_13                       1.000000
X_68_17                       1.000000
X_69_10                       1.000000
X_70_8                        1.000000
X_71_14                       1.000000
X_72_18                       1.000000
X_73_14                       1.000000
X_74_19                       1.000000
X_75_11                       1.000000
X_76_10                       1.000000
X_77_13                       1.000000
X_78_10                       1.000000
X_79_15                       1.000000
X_80_18                       1.000000
X_81_13                       1.000000
X_82_16                       1.000000
X_83_13                       1.000000
X_84_6                        1.000000
X_85_6                        1.000000
X_86_17                       1.000000
X_87_7                        1.000000
X_88_15                       1.000000
X_89_18                       1.000000
X_90_17                       1.000000
X_91_10                       1.000000
X_92_13                       1.000000
X_93_15                       1.000000
X_94_2                        1.000000
X_95_13                       1.000000
X_96_11                       1.000000
X_97_17                       1.000000
X_98_14                       1.000000
X_99_13                       1.000000
X_100_7                       1.000000
X_101_2                       1.000000
X_102_15                      1.000000
X_103_6                       1.000000
X_104_17                      1.000000
X_105_18                      1.000000
X_106_13                      1.000000
X_107_17                      1.000000
X_108_15                      1.000000
X_109_18                      1.000000
X_110_7                       1.000000
X_111_13                      1.000000
X_112_19                      1.000000
X_113_19                      1.000000
X_114_8                       1.000000
X_115_17                      1.000000
X_116_10                      1.000000
X_117_18                      1.000000
X_118_11                      1.000000
X_119_17                      1.000000
X_120_1                       1.000000
X_121_15                      1.000000
X_122_20                      1.000000
X_123_17                      1.000000
X_124_10                      1.000000
X_125_18                      1.000000
X_126_15                      1.000000
X_127_20                      1.000000
X_128_20                      1.000000
X_129_17                      1.000000
X_130_6                       1.000000
X_131_11                      1.000000
X_132_11                      1.000000
X_133_14                      1.000000
X_134_18                      1.000000
X_135_18                      1.000000
X_136_17                      1.000000
X_137_13                      1.000000
X_138_20                      1.000000
X_139_11                      1.000000
X_140_18                      1.000000
X_141_18                      1.000000
X_142_10                      1.000000
X_143_2                       1.000000
X_144_18                      1.000000
X_145_20                      1.000000
X_146_14                      1.000000
X_147_16                      1.000000
X_148_3                       1.000000
X_149_13                      1.000000
X_150_18                      1.000000
X_151_18                      1.000000
X_152_10                      1.000000
X_153_15                      1.000000
X_154_15                      1.000000
X_155_17                      1.000000
X_156_18                      1.000000
X_157_16                      1.000000
X_158_15                      1.000000
X_159_11                      1.000000
X_160_6                       1.000000
X_161_10                      1.000000
X_162_10                      1.000000
X_163_18                      1.000000
X_164_6                       1.000000
X_165_11                      1.000000
X_166_15                      1.000000
X_167_1                       1.000000
X_168_11                      1.000000
X_169_17                      1.000000
X_170_18                      1.000000
X_171_18                      1.000000
X_172_11                      1.000000
X_173_1                       1.000000
X_174_11                      1.000000
X_175_19                      1.000000
X_176_17                      1.000000
X_177_18                      1.000000
X_178_10                      1.000000
X_179_18                      1.000000
X_180_10                      1.000000
X_181_16                      1.000000
X_182_11                      1.000000
X_183_15                      1.000000
X_184_17                      1.000000
X_185_13                      1.000000
X_186_10                      1.000000
X_187_18                      1.000000
X_188_17                      1.000000
X_189_15                      1.000000
X_190_17                      1.000000
X_191_18                      1.000000
X_192_19                      1.000000
X_193_11                      1.000000
X_194_15                      1.000000
X_195_17                      1.000000
X_196_13                      1.000000
X_197_1                       1.000000
X_198_10                      1.000000
X_199_18                      1.000000
X_200_17                      1.000000
All other variables in the range 1-4001 are 0.
